 SYSTEM = scf-COHP-Ni9Mn3Ga3In_mag

INCAR-basic
   ISTART	= 1		
   ENCUT  = 450 eV
   LREAL  = .FALSE
   PREC   = Accurate 
   EDIFF  = 1E-6
   NPAR   = 4
   NBANDS = 160
  #ADDGRID = .FALSE  #Default_FALSE(increase grid helps GGA convergence) 
   
Magnetism property
   ISPIN  = 2    ## For magnetism set
   MAGMOM = 0 3*0 3*5 9*5
   LORBIT = 12
   
Electronic Relaxation
   ISMEAR = -5
   SIGMA  = 0.2
   NELM   = 60
   NELMIN = 5
   
Ionic Relaxation
   NSW    = 0   
   IBRION = -1
   ISIF   = 3            
   ISYM   = -1
   
  #LWAVE   = .FALSE  ##write WAVECAR or not
   LCHARG  = .TRUE ##write CHGCAR or not
   PSTRESS = 0
   

